8
1 2 1 2 1 4 2 2
-1	4	6	7.5	9	20	10	16	8
4	-1	6.5	4	10	5	7.5	11	10
6	6.5	-1	7.5	10	10	7.5	7.5	7.5
7.5	4	7.5	-1	10	5	9	9	15
9	10	10	10	-1	10	7.5	7.5	10
20	5	10	5	10	-1	7	9	7.5
10	7.5	7.5	9	7.5	7	-1	7	10
16	11	7.5	6	7.5	9	7	-1	10
8	10	7.5	15	10	7.5	10	10	-1
2
8 8